c nombre: 33
c densidad: 0.3
p edges 50 395
e 1 6
e 1 7
e 1 11
e 1 13
e 1 17
e 1 20
e 1 24
e 1 29
e 1 31
e 1 34
e 1 39
e 1 45
e 1 47
e 2 4
e 2 5
e 2 7
e 2 13
e 2 16
e 2 18
e 2 24
e 2 35
e 2 37
e 2 38
e 2 41
e 2 42
e 2 43
e 2 44
e 3 4
e 3 9
e 3 18
e 3 22
e 3 23
e 3 25
e 3 26
e 3 27
e 3 28
e 3 29
e 3 35
e 3 36
e 3 39
e 3 43
e 3 45
e 3 47
e 3 48
e 4 6
e 4 9
e 4 10
e 4 11
e 4 12
e 4 14
e 4 15
e 4 17
e 4 20
e 4 23
e 4 24
e 4 31
e 4 34
e 4 44
e 4 47
e 5 6
e 5 9
e 5 13
e 5 14
e 5 16
e 5 18
e 5 21
e 5 23
e 5 25
e 5 30
e 5 33
e 5 39
e 5 41
e 5 43
e 5 45
e 6 9
e 6 12
e 6 19
e 6 20
e 6 21
e 6 27
e 6 31
e 6 41
e 7 10
e 7 15
e 7 16
e 7 17
e 7 21
e 7 22
e 7 23
e 7 24
e 7 28
e 7 29
e 7 31
e 7 35
e 7 37
e 7 50
e 8 10
e 8 11
e 8 12
e 8 13
e 8 19
e 8 20
e 8 22
e 8 24
e 8 26
e 8 27
e 8 30
e 8 35
e 8 36
e 8 38
e 8 39
e 8 41
e 8 44
e 8 45
e 8 46
e 8 47
e 8 48
e 8 49
e 8 50
e 9 10
e 9 11
e 9 12
e 9 13
e 9 16
e 9 23
e 9 27
e 9 32
e 9 34
e 9 35
e 9 36
e 9 37
e 9 45
e 9 49
e 10 11
e 10 12
e 10 27
e 10 29
e 10 33
e 10 37
e 10 38
e 10 39
e 10 42
e 10 46
e 10 47
e 11 18
e 11 22
e 11 24
e 11 29
e 11 33
e 11 34
e 11 35
e 11 38
e 11 40
e 11 43
e 11 50
e 12 20
e 12 28
e 12 29
e 12 34
e 12 46
e 12 47
e 13 18
e 13 22
e 13 24
e 13 26
e 13 31
e 13 32
e 13 33
e 13 37
e 13 40
e 13 42
e 13 43
e 13 44
e 13 45
e 13 47
e 14 23
e 14 28
e 14 32
e 14 41
e 14 47
e 14 49
e 15 18
e 15 21
e 15 22
e 15 25
e 15 27
e 15 28
e 15 29
e 15 36
e 15 42
e 15 43
e 15 48
e 15 49
e 16 18
e 16 26
e 16 32
e 16 35
e 16 37
e 16 39
e 16 40
e 16 44
e 16 46
e 16 48
e 16 49
e 17 29
e 17 43
e 17 46
e 18 20
e 18 21
e 18 24
e 18 25
e 18 26
e 18 30
e 18 35
e 18 37
e 18 38
e 18 43
e 18 46
e 19 21
e 19 22
e 19 24
e 19 32
e 19 34
e 19 35
e 19 36
e 19 37
e 19 38
e 19 41
e 19 42
e 19 43
e 19 46
e 19 48
e 19 49
e 19 50
e 20 22
e 20 24
e 20 25
e 20 30
e 20 33
e 20 34
e 20 40
e 20 43
e 20 49
e 21 22
e 21 26
e 21 27
e 21 28
e 21 30
e 21 34
e 21 35
e 21 36
e 21 41
e 21 45
e 21 47
e 21 50
e 22 23
e 22 24
e 22 25
e 22 26
e 22 27
e 22 29
e 22 41
e 22 43
e 22 44
e 22 45
e 22 47
e 22 48
e 23 24
e 23 28
e 23 32
e 23 35
e 23 39
e 23 45
e 23 46
e 24 28
e 24 33
e 24 41
e 24 46
e 24 47
e 24 48
e 25 26
e 25 30
e 25 32
e 25 33
e 25 35
e 25 37
e 25 43
e 25 44
e 26 27
e 26 29
e 26 30
e 26 35
e 26 36
e 26 41
e 26 44
e 27 28
e 27 32
e 27 33
e 27 35
e 27 41
e 27 42
e 27 43
e 27 44
e 28 30
e 28 33
e 28 36
e 28 42
e 28 47
e 28 48
e 28 49
e 28 50
e 29 30
e 29 33
e 29 34
e 29 35
e 29 37
e 29 41
e 29 50
e 30 33
e 30 34
e 30 35
e 30 43
e 30 45
e 30 46
e 30 47
e 30 48
e 30 50
e 31 35
e 31 36
e 31 41
e 31 42
e 31 45
e 31 46
e 31 47
e 32 33
e 32 35
e 32 36
e 32 39
e 32 40
e 32 46
e 33 42
e 33 47
e 33 50
e 34 35
e 34 37
e 34 38
e 34 39
e 34 42
e 34 44
e 34 45
e 34 50
e 35 39
e 35 42
e 35 45
e 35 46
e 35 49
e 36 39
e 36 44
e 36 46
e 36 47
e 36 48
e 37 38
e 37 42
e 37 45
e 37 47
e 38 43
e 38 44
e 38 46
e 39 40
e 39 42
e 39 45
e 39 49
e 40 48
e 40 50
e 41 44
e 41 47
e 41 50
e 42 44
e 42 45
e 42 50
e 43 44
e 43 45
e 43 46
e 43 47
e 43 48
e 43 49
e 44 45
e 44 46
e 44 49
e 45 48
e 46 48
e 46 49
e 47 48
e 48 49
e 48 50
